Name: Caffeine,H+_1
MW: 0
CAS: 58-08-2
Formula: C8H10N4O2,H+
PrecursorMZ: 195.0874
Collision_energy: 35
Comments:
Num Peaks: 8
42.0411 1762.94955922581
69.047 716.127572885587
83.0625 815.200180334811
109.041 337.932594158827
110.0723 2555.53042296161
123.0436 897.082108439003
138.0669 10000
195.0879 6886.6772231072

