Name: Pyrogallol
PrecursorMz: 125.02290
Precursor_type:
Collision_energy: 15.00,30.00,45.00
Ionization:
IonMode: negative
RetentionTime: 3.57249
InChiKey:
Formula: C6H6O3
CASNo: 87-66-1
Smiles:
CompoundClass:
Comment:
Num peaks: 10
56.3390 219438.19
59.2044 233209.53
67.0174 1476364.63
69.0330 608841.88
82.7379 242565.91
92.2247 297042.09
95.0121 346651.94
96.7948 245438.59
125.0231 2179238.00
135.3865 242193.14

